c This file was generated by genrmf.
c The parameters are: a: 2 b: 2 c1: 1 c2: 4 seed: 1323335056
p max       8         20
n       1 s
n       8 t
a       1       5          4
a       1       2         16
a       1       3         16
a       2       6          3
a       2       1         16
a       2       4         16
a       3       8          3
a       3       4         16
a       3       1         16
a       4       7          4
a       4       3         16
a       4       2         16
a       5       6         16
a       5       7         16
a       6       5         16
a       6       8         16
a       7       8         16
a       7       5         16
a       8       7         16
a       8       6         16
